p cnf 19 8
a 1 2 0
e 3 4 5 0
a 6 7 8 0
e 9 0
a 10 11 0
e 12 13 0
a 14 15 0
e 16 0
a 17 0
e 18 19 0
-17 -14 -7 -19 0
12 4 14 -9 3 0
-17 -18 -19 6 0
-14 -4 -6 17 16 0
-19 -3 5 7 -9 0
-17 13 -4 0
15 -13 -1 0
-16 9 10 3 -13 0
